p tw 57 112
0 1
0 2
0 26
0 48
1 2
1 23
1 24
2 32
2 54
3 4
3 5
3 43
4 5
4 43
5 34
5 42
6 7
6 8
6 52
6 53
7 8
7 35
7 47
8 15
8 16
9 10
9 11
9 30
9 35
10 11
10 16
10 47
11 28
11 54
12 13
12 14
12 21
12 31
13 14
13 20
13 40
14 33
14 34
15 16
15 51
15 52
16 47
17 18
17 19
17 25
17 49
18 19
18 38
18 39
19 37
19 50
20 21
20 22
20 40
21 22
21 31
22 36
22 41
23 24
23 45
23 48
24 29
24 32
25 26
25 27
25 49
26 27
26 48
27 45
27 46
28 29
28 30
28 54
29 30
29 32
30 35
31 33
31 44
32 54
33 34
33 44
34 42
35 47
36 37
36 38
36 41
37 38
37 50
38 39
39 40
39 41
40 41
42 43
42 44
43 44
45 46
45 48
46 49
46 50
49 50
51 52
51 55
51 56
52 53
53 55
53 56
55 56
